problems/csplib-prob065/opd-models/noch/O0/minion/model_1-small_bibd_15_21_07-solution000001.eprime-solution
language ESSENCE' 1.0

letting lambda be 3
letting opd_ExplicitR2_Occurrence be
        [[false, false, false, false, false, false, false, false, false, false, false, false, false, false, true, true,
          true, true, true, true, true;
              int(1..21)],
         [false, false, false, false, false, false, false, false, false, false, true, true, true, true, false, false,
          false, false, true, true, true;
              int(1..21)],
         [false, false, false, false, false, false, false, false, false, true, false, true, true, true, false, true,
          true, true, false, false, false;
              int(1..21)],
         [false, false, false, false, false, false, false, false, true, true, true, false, false, true, true, false,
          false, true, false, false, true;
              int(1..21)],
         [false, false, false, false, false, false, false, true, false, true, true, false, true, false, true, false,
          true, false, false, true, false;
              int(1..21)],
         [false, false, false, false, false, false, false, true, true, false, false, false, true, true, true, true,
          false, false, true, false, false;
              int(1..21)],
         [false, false, false, false, false, false, false, true, true, false, true, true, false, false, false, false,
          true, true, true, false, false;
              int(1..21)],
         [false, false, false, false, false, false, false, true, true, true, false, true, false, false, false, true,
          false, false, false, true, true;
              int(1..21)],
         [false, false, false, false, false, false, true, false, false, true, true, true, false, false, true, true,
          false, false, true, false, false;
              int(1..21)],
         [false, false, false, false, false, false, true, false, true, false, false, true, false, true, true, false,
          true, false, false, true, false;
              int(1..21)],
         [false, false, false, false, false, false, true, false, true, false, true, false, true, false, false, true,
          false, true, false, true, false;
              int(1..21)],
         [false, false, false, false, false, false, true, false, true, true, false, false, true, false, false, false,
          true, false, true, false, true;
              int(1..21)],
         [false, false, false, false, false, false, true, true, false, false, false, true, true, false, true, false,
          false, true, false, false, true;
              int(1..21)],
         [false, false, false, false, false, false, true, true, false, false, true, false, false, true, false, true,
          true, false, false, false, true;
              int(1..21)],
         [false, false, false, false, false, false, true, true, false, true, false, false, false, true, false, false,
          false, true, true, true, false;
              int(1..21)];
             int(1..15)]
