problems/csplib-prob065/opd-models/noch/O2/minion/model_1-small_bibd_15_21_07-solution000001.solution
language Essence 1.3

letting lambda be 3
letting opd be
        {{7, 8, 10, 14, 18, 19, 20}, {7, 8, 11, 14, 16, 17, 21}, {7, 8, 12, 13, 15, 18, 21}, {7, 9, 10, 13, 17, 19, 21},
         {7, 9, 11, 13, 16, 18, 20}, {7, 9, 12, 14, 15, 17, 20}, {7, 10, 11, 12, 15, 16, 19},
         {8, 9, 10, 12, 16, 20, 21}, {8, 9, 11, 12, 17, 18, 19}, {8, 9, 13, 14, 15, 16, 19},
         {8, 10, 11, 13, 15, 17, 20}, {9, 10, 11, 14, 15, 18, 21}, {10, 12, 13, 14, 16, 17, 18},
         {11, 12, 13, 14, 19, 20, 21}, {15, 16, 17, 18, 19, 20, 21}}
$ Visualisation for opd
$  7  8 10 14 18 19 20
$  7  8 11 14 16 17 21
$  7  8 12 13 15 18 21
$  7  9 10 13 17 19 21
$  7  9 11 13 16 18 20
$  7  9 12 14 15 17 20
$  7 10 11 12 15 16 19
$  8  9 10 12 16 20 21
$  8  9 11 12 17 18 19
$  8  9 13 14 15 16 19
$  8 10 11 13 15 17 20
$  9 10 11 14 15 18 21
$ 10 12 13 14 16 17 18
$ 11 12 13 14 19 20 21
$ 15 16 17 18 19 20 21

